DATASET = "thpack6";
INSTANCE = "002";

WIDTH = 233;
HEIGHT = 220;
LENGTH = 587;

NO_OF_SHAPES = 15;
size = [|
  49,25,21 |
  60,51,41 |
  103,76,64 |
  95,70,62 |
  111,49,26 |
  85,84,72 |
  48,36,31 |
  86,76,38 |
  71,48,47 |
  90,43,33 |
  98,52,44 |
  73,37,23 |
  61,48,39 |
  75,75,63 |
  74,42,40 |
|];

verticality = [|
  0,1,1 |
  1,1,1 |
  1,1,1 |
  1,1,1 |
  0,1,1 |
  1,1,1 |
  1,1,1 |
  0,0,1 |
  1,1,1 |
  0,1,1 |
  0,1,1 |
  0,1,1 |
  1,1,1 |
  1,1,1 |
  1,1,1 |
|];

box_count = [
  13,
  9,
  8,
  6,
  10,
  10,
  10,
  12,
  14,
  9,
  9,
  10,
  14,
  11,
  4,
];
